CPXPARAM_Read_DataCheck                          1
Found incumbent of value 0.000000 after 0.00 sec. (0.26 ticks)
Tried aggregator 1 time.
MIP Presolve eliminated 4 rows and 0 columns.
MIP Presolve modified 1 coefficients.
Reduced MIP has 1027 rows, 10010 columns, and 46030 nonzeros.
Reduced MIP has 10010 binaries, 0 generals, 0 SOSs, and 0 indicators.
Presolve time = 0.03 sec. (17.37 ticks)
Tried aggregator 1 time.
Reduced MIP has 1027 rows, 10010 columns, and 46030 nonzeros.
Reduced MIP has 10010 binaries, 0 generals, 0 SOSs, and 0 indicators.
Presolve time = 0.02 sec. (19.46 ticks)
Probing time = 0.02 sec. (3.31 ticks)
Clique table members: 10000.
MIP emphasis: balance optimality and feasibility.
MIP search method: dynamic search.
Parallel mode: deterministic, using up to 4 threads.
Root relaxation solution time = 0.09 sec. (88.20 ticks)

        Nodes                                         Cuts/
   Node  Left     Objective  IInf  Best Integer    Best Bound    ItCnt     Gap

*     0+    0                            0.0000    62424.0000              --- 
      0     0    36160.7620    10        0.0000    36160.7620     1949     --- 
*     0+    0                        22438.0000    36160.7620            61.16%
      0     0        cutoff          22438.0000    22438.0000     4113    0.00%
Elapsed time = 1.48 sec. (777.64 ticks, tree = 0.01 MB, solutions = 2)

Clique cuts applied:  337
Cover cuts applied:  1
Mixed integer rounding cuts applied:  4
Zero-half cuts applied:  9
Gomory fractional cuts applied:  5

Root node processing (before b&c):
  Real time             =    1.48 sec. (778.30 ticks)
Parallel b&c, 4 threads:
  Real time             =    0.00 sec. (0.00 ticks)
  Sync time (average)   =    0.00 sec.
  Wait time (average)   =    0.00 sec.
                          ------------
Total (root+branch&cut) =    1.48 sec. (778.30 ticks)
